(declare-fun e () String)
(declare-fun c () String)
(declare-fun g () String)
(declare-fun b () String)
(declare-fun d () String)
(declare-fun f () String)
(declare-fun h () String)
(assert (= "c" (str.++ g "c")))
(assert (= "ahf" (str.++ b d e c c)))
(assert (= (str.++ d "d" h "ba" h) (str.++ f e "ge")))

(check-sat)
